; ./seahorn/./sv_comp_flat_small/ssh-simplified/s3_srvr_1_true-unreach-call.cil.c.flat_000.smt2
(set-logic HORN)

(declare-fun |main_1| ( Int Int Int Int Bool Bool Int Int Bool Int Bool Bool Int Int Bool Bool Int Int ) Bool)

(assert
  (forall ( (A Int) (B Int) (C Int) (D Bool) (E Bool) (F Int) (G Int) (H Bool) (I Int) (J Bool) (K Bool) (L Int) (M Int) (N Bool) (O Bool) (P Int) (Q Int) (v_17 Int) ) 
    (=>
      (and
        (and true (= 0 v_17))
      )
      (main_1 v_17 A B C D E F G H I J K L M N O P Q)
    )
  )
)
(assert
  (forall ( (A Int) (B Int) (C Int) (D Int) (E Int) (F Int) (G Int) (H Int) (I Int) (J Int) (K Int) (L Bool) (M Bool) (N Bool) (O Int) (P Bool) (Q Bool) (R Bool) (S Bool) (T Bool) (U Bool) (V Bool) (W Bool) (X Int) (Y Bool) (Z Bool) (A1 Bool) (B1 Bool) (C1 Bool) (D1 Bool) (E1 Bool) (F1 Int) (G1 Int) (H1 Int) (I1 Int) (J1 Int) (K1 Int) (L1 Bool) (M1 Bool) (N1 Int) (O1 Int) (P1 Bool) (Q1 Int) (R1 Bool) (S1 Bool) (T1 Int) (U1 Int) (V1 Bool) (W1 Bool) (X1 Int) (Y1 Int) (Z1 Bool) (A2 Int) (B2 Bool) (C2 Bool) (D2 Int) (E2 Int) (F2 Int) (G2 Int) (H2 Int) (v_60 Int) (v_61 Int) ) 
    (=>
      (and
        (main_1 v_60 I1 J1 K1 L1 M1 N1 O1 P1 Q1 R1 S1 T1 U1 V1 W1 X1 Y1)
        (and (= 0 v_60)
     (not (= (= I (- 256)) C1))
     (not (= (= H 0) Y))
     (not (= (= D (- 2097152)) Q))
     (not (= (<= 1 K) M))
     (= E1 (and C1 D1))
     (= D1 (= E (- 2)))
     (= B1 (= E (- 1)))
     (= A1 (or Y Z))
     (= Z (= B 0))
     (= W (= J (- 4)))
     (= V (= J (- 2)))
     (= U (or S T))
     (= T (= G 0))
     (= S (or Q R))
     (= P (= I (- 256)))
     (= N (= A 0))
     (= L (= C 0))
     (= G1 (ite N 3 8640))
     (= F1 (ite N 8656 3))
     (= X (ite W 1024 512))
     (= O (ite N 8512 8656))
     (or (= F2 0) (not Z1) (not C2))
     (or (= E2 8464) (not Z1) (not C2))
     (or (= H1 E2) (not Z1) (not C2))
     (or (= H2 F2) (not Z1) (not C2))
     (or (= G2 D2) (not Z1) (not C2))
     (or (= D2 A2) (not Z1) (not C2))
     (or (not B2) (and Z1 C2))
     (not L)
     (= B2 true)
     (not (= (= I (- 30)) R))
     (= 1 v_61))
      )
      (main_1 v_61 G2 H1 H2 A1 M O O1 P X V U E F B1 E1 F1 G1)
    )
  )
)
(assert
  (forall ( (A Int) (B Int) (C Int) (D Bool) (E Bool) (F Int) (G Int) (H Bool) (I Int) (J Bool) (K Bool) (L Int) (M Int) (N Bool) (O Bool) (P Int) (Q Int) (R Bool) (S Bool) (T Bool) (U Int) (V Int) (v_22 Int) (v_23 Int) ) 
    (=>
      (and
        (main_1 v_22 A B C D E F G H I J K L M N O P Q)
        (and (= 1 v_22)
     (or (not T) (not R) (= U B))
     (or (not S) (and T R))
     (= S true)
     (or (not T) (not R) (= V U))
     (= 2 v_23))
      )
      (main_1 v_23 A B C D E F V H I J K L M N O P Q)
    )
  )
)
(assert
  (forall ( (A Int) (B Bool) (C Bool) (D Bool) (E Int) (F Bool) (G Bool) (H Int) (I Bool) (J Int) (K Bool) (L Bool) (M Int) (N Bool) (O Bool) (P Bool) (Q Bool) (R Int) (S Bool) (T Int) (U Bool) (V Bool) (W Bool) (X Int) (Y Bool) (Z Int) (A1 Bool) (B1 Int) (C1 Bool) (D1 Int) (E1 Int) (F1 Bool) (G1 Int) (H1 Bool) (I1 Bool) (J1 Bool) (K1 Bool) (L1 Int) (M1 Bool) (N1 Int) (O1 Bool) (P1 Bool) (Q1 Bool) (R1 Bool) (S1 Bool) (T1 Bool) (U1 Int) (V1 Bool) (W1 Int) (X1 Bool) (Y1 Bool) (Z1 Int) (A2 Int) (B2 Bool) (C2 Int) (D2 Bool) (E2 Int) (F2 Bool) (G2 Bool) (H2 Int) (I2 Bool) (J2 Int) (K2 Bool) (L2 Bool) (M2 Bool) (N2 Int) (O2 Bool) (P2 Int) (Q2 Bool) (R2 Int) (S2 Bool) (T2 Int) (U2 Bool) (V2 Bool) (W2 Bool) (X2 Int) (Y2 Bool) (Z2 Int) (A3 Bool) (B3 Int) (C3 Bool) (D3 Bool) (E3 Int) (F3 Bool) (G3 Bool) (H3 Int) (I3 Int) (J3 Int) (K3 Bool) (L3 Int) (M3 Bool) (N3 Int) (O3 Bool) (P3 Bool) (Q3 Bool) (R3 Bool) (S3 Bool) (T3 Bool) (U3 Int) (V3 Int) (W3 Int) (X3 Int) (Y3 Bool) (Z3 Bool) (A4 Int) (B4 Int) (C4 Bool) (D4 Int) (E4 Bool) (F4 Bool) (G4 Int) (H4 Int) (I4 Bool) (J4 Bool) (K4 Int) (L4 Int) (M4 Bool) (N4 Int) (O4 Int) (P4 Int) (Q4 Int) (R4 Int) (S4 Bool) (T4 Bool) (U4 Bool) (V4 Bool) (W4 Bool) (X4 Int) (Y4 Int) (Z4 Bool) (A5 Bool) (B5 Bool) (C5 Bool) (D5 Int) (E5 Bool) (F5 Bool) (G5 Bool) (H5 Bool) (I5 Bool) (J5 Bool) (K5 Bool) (L5 Bool) (M5 Bool) (N5 Bool) (O5 Int) (P5 Int) (Q5 Bool) (R5 Bool) (S5 Int) (T5 Bool) (U5 Bool) (V5 Bool) (W5 Bool) (X5 Int) (Y5 Bool) (Z5 Bool) (A6 Bool) (B6 Bool) (C6 Bool) (D6 Bool) (E6 Int) (F6 Int) (G6 Bool) (H6 Bool) (I6 Bool) (J6 Bool) (K6 Bool) (L6 Bool) (M6 Bool) (N6 Bool) (O6 Bool) (P6 Bool) (Q6 Int) (R6 Bool) (S6 Bool) (T6 Bool) (U6 Bool) (V6 Bool) (W6 Bool) (X6 Bool) (Y6 Bool) (Z6 Bool) (A7 Bool) (B7 Bool) (C7 Bool) (D7 Bool) (E7 Bool) (F7 Bool) (G7 Bool) (H7 Bool) (I7 Bool) (J7 Bool) (K7 Bool) (L7 Bool) (M7 Bool) (N7 Bool) (O7 Bool) (P7 Bool) (Q7 Int) (R7 Int) (S7 Bool) (T7 Bool) (U7 Int) (V7 Bool) (W7 Bool) (X7 Bool) (Y7 Bool) (Z7 Int) (A8 Int) (B8 Bool) (C8 Bool) (D8 Bool) (E8 Bool) (F8 Bool) (G8 Bool) (H8 Int) (I8 Bool) (J8 Bool) (K8 Bool) (L8 Bool) (M8 Bool) (N8 Bool) (O8 Bool) (P8 Bool) (Q8 Bool) (R8 Bool) (S8 Bool) (T8 Bool) (U8 Bool) (V8 Bool) (W8 Bool) (X8 Bool) (Y8 Bool) (Z8 Bool) (A9 Bool) (B9 Int) (C9 Int) (D9 Int) (E9 Int) (F9 Int) (G9 Int) (H9 Int) (I9 Int) (J9 Int) (K9 Int) (L9 Int) (M9 Int) (N9 Int) (O9 Int) (P9 Int) (Q9 Int) (R9 Int) (S9 Int) (T9 Int) (U9 Int) (V9 Int) (W9 Int) (X9 Int) (Y9 Int) (Z9 Int) (A10 Int) (B10 Int) (C10 Int) (D10 Int) (E10 Int) (F10 Int) (G10 Int) (H10 Int) (I10 Int) (J10 Int) (K10 Int) (L10 Int) (M10 Int) (N10 Int) (O10 Int) (P10 Int) (Q10 Int) (R10 Int) (S10 Int) (T10 Int) (U10 Int) (V10 Int) (W10 Int) (X10 Bool) (Y10 Bool) (Z10 Bool) (A11 Bool) (B11 Bool) (C11 Bool) (v_289 Int) (v_290 Int) ) 
    (=>
      (and
        (main_1 v_289 V3 W3 X3 Y3 Z3 A4 B4 C4 D4 E4 F4 G4 H4 I4 J4 K4 L4)
        (let ((a!1 (or (not I8) (not (= (<= 8448 A8) C))))
      (a!2 (or (not I8) (not (= (<= E 0) F))))
      (a!3 (or (not F8) (not (= (<= 3 H) I))))
      (a!4 (or (not F8) (not (= (<= 1 J) L))))
      (a!5 (or (not D8) (not (= (<= 1 M) N))))
      (a!6 (or (not B8) (not (= (<= 8480 A8) O))))
      (a!7 (or (not X7) (not (= (<= 8464 A8) P))))
      (a!8 (or (not S7) (not (= (<= 2 R) S))))
      (a!9 (or (not S7) (not (= (<= 1 T) U))))
      (a!10 (or (not O7) (not (= (<= 8496 R7) W))))
      (a!11 (or (not M7) (not (= (<= 1 X) Y))))
      (a!12 (or (not K7) (not (= (<= 2 Z) A1))))
      (a!13 (or (not H7) (not (= (<= 1 B1) C1))))
      (a!14 (or (not F7) (not (= (<= E1 D4) F1))))
      (a!15 (or (not B7) (not (= (<= 2 G1) H1))))
      (a!16 (or (not Z6) (not (= (<= 8528 B4) I1))))
      (a!17 (or (not X6) (not (= (<= 8512 B4) J1))))
      (a!18 (or (not V6) (not (= (<= 8482 B4) K1))))
      (a!19 (or (not T6) (not (= (<= 1 L1) M1))))
      (a!20 (or (not R6) (not (= (= H4 0) Q1))))
      (a!21 (or (not R6) (not (= (= G4 (- 4)) P1))))
      (a!22 (or (not R6) (not (= (<= 2 N1) O1))))
      (a!23 (or (not O6) (not (= (<= 2 U1) V1))))
      (a!24 (or (not O6) (not (= (<= 1 W1) X1))))
      (a!25 (or (not M6) (not (= (<= 8560 B4) Y1))))
      (a!26 (or (not K6) (not (= (<= 1 A2) B2))))
      (a!27 (or (not I6) (not (= (<= 2 C2) D2))))
      (a!28 (or (not I6) (not (= (<= 1 E2) F2))))
      (a!29 (or (not G6) (not (= (<= 2 H2) I2))))
      (a!30 (or (not G6) (not (= (<= 1 J2) K2))))
      (a!31 (or (not C6) (not (= (<= 8592 F6) L2))))
      (a!32 (or (not A6) (not (= (<= 8576 B4) M2))))
      (a!33 (or (not Y5) (not (= (<= 2 N2) O2))))
      (a!34 (or (not Y5) (not (= (<= 1 P2) Q2))))
      (a!35 (or (not V5) (not (= (<= 2 R2) S2))))
      (a!36 (or (not V5) (not (= (<= 1 T2) U2))))
      (a!37 (or (not T5) (not (= (<= 8640 Y4) W2))))
      (a!38 (or (not Q5) (not (= (<= 2 X2) Y2))))
      (a!39 (or (not Q5) (not (= (<= 1 B3) C3))))
      (a!40 (or (not L5) (not (= (<= 1 D5) G3))))
      (a!41 (or (not B5) (not (= (<= 5 X3) P3))))
      (a!42 (or (not B5) (not (= (<= 2 N3) O3))))
      (a!43 (or (not Z4) (not (= (<= 8672 Y4) Q3))))
      (a!44 (or (not V4) (not (= (<= 8656 Y4) R3))))
      (a!45 (or (not T4) (not (= (<= 8608 B4) S3))))
      (a!46 (or (not X10) (not (= (<= 1 A) B)))))
  (and (= 2 v_289)
       (or (and L5 L8)
           (and K6 M8)
           (and T6 N8)
           (and H7 O8)
           (and M7 P8)
           (and D8 Q8)
           (and I8 R8)
           (and F8 S8)
           (and V7 T8)
           (and S7 U8)
           (and O6 V8)
           (and I6 W8)
           (and G6 X8)
           (and Y5 Y8)
           (and V5 Z8)
           (and Q5 A9)
           (not K8))
       (or (= V9 X3) (not I8) (not R8))
       (or (= U9 V3) (not I8) (not R8))
       (or (= T9 V3) (not I8) (not R8))
       (or (= J3 V9) (not I8) (not R8))
       (or (= I3 U9) (not I8) (not R8))
       (or (= H3 T9) (not I8) (not R8))
       (or (= Y9 H8) (not F8) (not S8))
       (or (= X9 8496) (not F8) (not S8))
       (or (= W9 V3) (not F8) (not S8))
       (or (= J3 Y9) (not F8) (not S8))
       (or (= I3 X9) (not F8) (not S8))
       (or (= H3 W9) (not F8) (not S8))
       (or (= R9 8448) (not D8) (not Q8))
       (or (= Q9 8482) (not D8) (not Q8))
       (or (= J3 S9) (not D8) (not Q8))
       (or (= I3 R9) (not D8) (not Q8))
       (or (= H3 Q9) (not D8) (not Q8))
       (or (= S9 X3) (not D8) (not Q8))
       (or (= Z9 V3) (not V7) (not T8))
       (or (= J3 B10) (not V7) (not T8))
       (or (= I3 A10) (not V7) (not T8))
       (or (= H3 Z9) (not V7) (not T8))
       (or (= B10 X3) (not V7) (not T8))
       (or (= A10 3) (not V7) (not T8))
       (or (= J3 E10) (not S7) (not U8))
       (or (= I3 D10) (not S7) (not U8))
       (or (= H3 C10) (not S7) (not U8))
       (or (= E10 U7) (not S7) (not U8))
       (or (= D10 A4) (not S7) (not U8))
       (or (= C10 V3) (not S7) (not U8))
       (or (= P9 X3) (not P8) (not M7))
       (or (= O9 8528) (not P8) (not M7))
       (or (= N9 V3) (not P8) (not M7))
       (or (= J3 P9) (not P8) (not M7))
       (or (= I3 O9) (not P8) (not M7))
       (or (= H3 N9) (not P8) (not M7))
       (or (and F7 I7) (and B7 J7) (not H7))
       (or (= M9 X3) (not O8) (not H7))
       (or (= L9 8544) (not O8) (not H7))
       (or (= K9 V3) (not O8) (not H7))
       (or (= J3 M9) (not O8) (not H7))
       (or (= I3 L9) (not O8) (not H7))
       (or (= H3 K9) (not O8) (not H7))
       (or (= R7 Q7) (not X6) (not P7))
       (or (= Q7 B4) (not X6) (not P7))
       (or (= A8 Z7) (not V6) (not Y7))
       (or (= Z7 B4) (not V6) (not Y7))
       (or (= I9 8448) (not N8) (not T6))
       (or (= H9 8576) (not N8) (not T6))
       (or (= J3 J9) (not N8) (not T6))
       (or (= I3 I9) (not N8) (not T6))
       (or (= H3 H9) (not N8) (not T6))
       (or (= J9 X3) (not N8) (not T6))
       (or (= G10 8448) (not O6) (not V8))
       (or (= J3 H10) (not O6) (not V8))
       (or (= I3 G10) (not O6) (not V8))
       (or (= H3 F10) (not O6) (not V8))
       (or (= H10 X3) (not O6) (not V8))
       (or (= F10 8576) (not O6) (not V8))
       (or (= Q6 B4) (not M6) (not P6))
       (or (= Z1 Q6) (not M6) (not P6))
       (or (= G9 X3) (not K6) (not M8))
       (or (= J3 G9) (not K6) (not M8))
       (or (= I3 F9) (not K6) (not M8))
       (or (= H3 E9) (not K6) (not M8))
       (or (= F9 8592) (not K6) (not M8))
       (or (= E9 V3) (not K6) (not M8))
       (or (= K10 X3) (not I6) (not W8))
       (or (= J3 K10) (not I6) (not W8))
       (or (= I3 J10) (not I6) (not W8))
       (or (= H3 I10) (not I6) (not W8))
       (or (= J10 8466) (not I6) (not W8))
       (or (= I10 V3) (not I6) (not W8))
       (or (= J3 N10) (not G6) (not X8))
       (or (= I3 M10) (not G6) (not X8))
       (or (= H3 L10) (not G6) (not X8))
       (or (= L10 V3) (not G6) (not X8))
       (or (= N10 X3) (not G6) (not X8))
       (or (= M10 8608) (not G6) (not X8))
       (or (= F6 E6) (not A6) (not D6))
       (or (= E6 B4) (not A6) (not D6))
       (or (= Q10 X3) (not Y5) (not Y8))
       (or (= J3 Q10) (not Y5) (not Y8))
       (or (= I3 P10) (not Y5) (not Y8))
       (or (= H3 O10) (not Y5) (not Y8))
       (or (= P10 8640) (not Y5) (not Y8))
       (or (= O10 V3) (not Y5) (not Y8))
       (or (= J3 T10) (not V5) (not Z8))
       (or (= I3 S10) (not V5) (not Z8))
       (or (= H3 R10) (not V5) (not Z8))
       (or (= T10 X5) (not V5) (not Z8))
       (or (= S10 K4) (not V5) (not Z8))
       (or (= R10 V3) (not V5) (not Z8))
       (or (= J3 W10) (not Q5) (not A9))
       (or (= I3 V10) (not Q5) (not A9))
       (or (= H3 U10) (not Q5) (not A9))
       (or (= W10 S5) (not Q5) (not A9))
       (or (= V10 8672) (not Q5) (not A9))
       (or (= U10 V3) (not Q5) (not A9))
       (or (and I5 M5) (and G5 N5) (not L5))
       (or (= J3 D9) (not L5) (not L8))
       (or (= I3 C9) (not L5) (not L8))
       (or (= H3 B9) (not L5) (not L8))
       (or (= D9 L3) (not L5) (not L8))
       (or (= C9 8448) (not L5) (not L8))
       (or (= B9 L4) (not L5) (not L8))
       (or (and G5 J5) (and E5 K5) (not I5))
       (or (= O5 X3) (not I5) (not M5))
       (or (= L3 O5) (not I5) (not M5))
       (or (= P5 5) (not G5) (not N5))
       (or (= L3 P5) (not G5) (not N5))
       (or (= Y4 X4) (not T4) (not W4))
       (or (= X4 B4) (not T4) (not W4))
       (or F4 (not B7) (not J7))
       (or (not F4) (not B7) (not E7))
       (or (not E4) (not D7) (not G7))
       (or C4 (not K7) (not N7))
       (or Y3 (not K8) (not B11))
       (or T3 (not S4) (not W6))
       (or (not T3) (not S4) (not U4))
       (or S3 (not T4) (not B6))
       (or (not S3) (not T4) (not W4))
       (or R3 (not V4) (not U5))
       (or (not R3) (not V4) (not A5))
       (or Q3 (not Z4) (not R5))
       (or (not Q3) (not Z4) (not C5))
       (or P3 (not B5) (not H5))
       (or (not P3) (not B5) (not F5))
       (or (not M3) (not E5) (not K5))
       (or K3 (not G5) (not N5))
       (or (not K3) (not G5) (not J5))
       (or W2 (not T5) (not Z5))
       (or (not W2) (not T5) (not W5))
       (or M2 (not A6) (not N6))
       (or (not M2) (not A6) (not D6))
       (or L2 (not C6) (not J6))
       (or (not L2) (not C6) (not H6))
       (or G2 (not I6) (not W8))
       (or (not G2) (not I6) (not L6))
       (or Y1 (not M6) (not S6))
       (or (not Y1) (not M6) (not P6))
       (or (not T1) (not R6) (not U6))
       (or K1 (not V6) (not Y7))
       (or (not K1) (not V6) (not Y6))
       (or J1 (not X6) (not P7))
       (or (not J1) (not X6) (not A7))
       (or I1 (not Z6) (not L7))
       (or (not I1) (not Z6) (not C7))
       (or F1 (not F7) (not I7))
       (or W (not O7) (not W7))
       (or (not W) (not O7) (not T7))
       (or P (not X7) (not J8))
       (or (not P) (not X7) (not C8))
       (or O (not B8) (not G8))
       (or (not O) (not B8) (not E8))
       (or (not Y3) (not K8) (not Y10))
       (or (not Z10) (and A11 X10) (and K8 B11))
       (or (= R4 P4) (not Z10) (not C11))
       (or (= Q4 N4) (not Z10) (not C11))
       (or (= P4 J3) (not Z10) (not C11))
       (or (= O4 I3) (not Z10) (not C11))
       (or (= N4 H3) (not Z10) (not C11))
       (or (= U3 O4) (not Z10) (not C11))
       a!1
       a!2
       (or (not I8) (= G (and F Z3)))
       (or (not I8) (= D (= A8 8448)))
       (or (not I8) (and X7 J8))
       a!3
       a!4
       (or (not F8) (= K (= X3 0)))
       (or (not F8) (= H8 (ite K 1 X3)))
       (or (not F8) (= H (+ (- 8464) A8)))
       (or (not F8) (and B8 G8))
       a!5
       (or (not D8) (and B8 E8))
       a!6
       (or (not B8) (and X7 C8))
       a!7
       (or (not X7) (and V6 Y7))
       (or (not V7) (= Q (= R7 8482)))
       (or (not V7) (and O7 W7))
       a!8
       a!9
       (or (not S7) (= V (= X3 1)))
       (or (not S7) (= U7 (ite V 2 X3)))
       (or (not S7) (= R (+ (- 8496) R7)))
       (or (not S7) (and O7 T7))
       a!10
       (or (not O7) (and X6 P7))
       a!11
       (or (not M7) (and K7 N7))
       a!12
       (or (not K7) (= Z (+ (- 8512) B4)))
       (or (not K7) (and Z6 L7))
       a!13
       a!14
       (or (not F7) (= E1 (* 8 D1)))
       (or (not F7) (and D7 G7))
       (or (not D7) (and B7 E7))
       a!15
       (or (not B7) (= G1 (+ (- 8528) B4)))
       (or (not B7) (and Z6 C7))
       a!16
       (or (not Z6) (and X6 A7))
       a!17
       (or (not X6) (and V6 Y6))
       a!18
       (or (not V6) (and S4 W6))
       a!19
       (or (not T6) (and R6 U6))
       a!20
       a!21
       a!22
       (or (not R6) (= T1 (or S1 J4)))
       (or (not R6) (= S1 (or R1 I4)))
       (or (not R6) (= R1 (and P1 Q1)))
       (or (not R6) (= N1 (+ (- 8544) B4)))
       (or (not R6) (and M6 S6))
       a!23
       a!24
       (or (not O6) (= U1 (+ (- 8560) Z1)))
       (or (not O6) (and M6 P6))
       a!25
       (or (not M6) (and A6 N6))
       a!26
       (or (not K6) (and I6 L6))
       a!27
       a!28
       (or (not I6) (= G2 (= E2 2)))
       (or (not I6) (= C2 (+ (- 8576) F6)))
       (or (not I6) (and C6 J6))
       a!29
       a!30
       (or (not G6) (= H2 (+ (- 8592) F6)))
       (or (not G6) (and C6 H6))
       a!31
       (or (not C6) (and A6 D6))
       a!32
       (or (not A6) (and T4 B6))
       a!33
       a!34
       (or (not Y5) (= N2 (+ (- 8608) Y4)))
       (or (not Y5) (and T5 Z5))
       a!35
       a!36
       (or (not V5) (= V2 (= X3 3)))
       (or (not V5) (= X5 (ite V2 4 X3)))
       (or (not V5) (= R2 (+ (- 8640) Y4)))
       (or (not V5) (and T5 W5))
       a!37
       (or (not T5) (and V4 U5))
       a!38
       a!39
       (or (not Q5) (= F3 (= E3 0)))
       (or (not Q5) (= D3 (= X3 2)))
       (or (not Q5) (= A3 (= Z2 0)))
       (or (not Q5) (= S5 (ite D3 3 X3)))
       (or (not Q5) (= X2 (+ (- 8656) Y4)))
       (or (not Q5) (and Z4 R5))
       a!40
       (or (not G5) (= K3 (= X3 4)))
       (or (not G5) (and B5 H5))
       (or (not E5) (= M3 (= X3 5)))
       (or (not E5) (and B5 F5))
       a!41
       a!42
       (or (not B5) (= N3 (+ (- 8672) Y4)))
       (or (not B5) (and Z4 C5))
       a!43
       (or (not Z4) (and V4 A5))
       a!44
       (or (not V4) (and T4 W4))
       a!45
       (or (not T4) (and S4 U4))
       (or (not M4) (and Z10 C11))
       (or O3 (not B5))
       (or (not G3) (not L5))
       (or (not F3) (not Q5))
       (or (not C3) (not Q5))
       (or (not A3) (not Q5))
       (or Y2 (not Q5))
       (or (not U2) (not V5))
       (or S2 (not V5))
       (or (not Q2) (not Y5))
       (or O2 (not Y5))
       (or (not K2) (not G6))
       (or I2 (not G6))
       (or (not F2) (not I6))
       (or D2 (not I6))
       (or (not B2) (not K6))
       (or (not X1) (not O6))
       (or V1 (not O6))
       (or O1 (not R6))
       (or (not M1) (not T6))
       (or H1 (not B7))
       (or (not C1) (not H7))
       (or A1 (not K7))
       (or (not Y) (not M7))
       (or (not U) (not S7))
       (or S (not S7))
       (or Q (not V7))
       (or (not N) (not D8))
       (or (not L) (not F8))
       (or I (not F8))
       (or (not G) (not I8))
       (or D (not I8))
       (or (not C) (not I8))
       a!46
       (or (not X10) (and Y10 K8))
       (or (not X10) (not B))
       (= M4 true)
       (not (= (<= 8544 B4) T3))
       (= 1 v_290)))
      )
      (main_1 v_290 Q4 U3 R4 Y3 Z3 A4 B4 C4 D4 E4 F4 G4 H4 I4 J4 K4 L4)
    )
  )
)
(assert
  (forall ( (A Int) (B Bool) (C Int) (D Int) (E Bool) (F Int) (G Bool) (H Bool) (I Bool) (J Bool) (K Int) (L Bool) (M Bool) (N Bool) (O Bool) (P Bool) (Q Bool) (R Int) (S Bool) (T Bool) (U Bool) (V Bool) (W Int) (X Int) (Y Int) (Z Bool) (A1 Bool) (B1 Int) (C1 Int) (D1 Bool) (E1 Int) (F1 Bool) (G1 Bool) (H1 Int) (I1 Int) (J1 Bool) (K1 Bool) (L1 Int) (M1 Int) (N1 Bool) (O1 Int) (P1 Int) (Q1 Bool) (R1 Bool) (S1 Bool) (T1 Bool) (U1 Bool) (V1 Bool) (W1 Bool) (X1 Bool) (Y1 Bool) (Z1 Bool) (A2 Bool) (B2 Bool) (C2 Bool) (D2 Bool) (E2 Bool) (F2 Bool) (G2 Bool) (H2 Bool) (I2 Bool) (J2 Bool) (K2 Bool) (L2 Bool) (M2 Bool) (N2 Bool) (O2 Bool) (P2 Bool) (Q2 Bool) (R2 Int) (S2 Int) (T2 Int) (U2 Int) (V2 Bool) (W2 Bool) (v_75 Int) (v_76 Int) ) 
    (=>
      (and
        (main_1 v_75 W X Y Z A1 B1 C1 D1 E1 F1 G1 H1 I1 J1 K1 L1 M1)
        (let ((a!1 (or (not C2) (not (= (<= 8528 C1) H))))
      (a!2 (or (not Y1) (not (= (<= 8482 C1) J))))
      (a!3 (or (not W1) (not (= (= I1 0) N))))
      (a!4 (or (not W1) (not (= (= H1 (- 4)) M))))
      (a!5 (or (not W1) (not (= (<= 2 K) L))))
      (a!6 (or (not U1) (not (= (<= 8560 C1) S))))
      (a!7 (or (not I2) (not (= (<= D E1) E))))
      (a!8 (or (not E2) (not (= (<= 2 F) G))))
      (a!9 (or (not A2) (not (= (<= 8512 C1) I))))
      (a!10 (or (not S1) (not (= (<= 8576 C1) T))))
      (a!11 (or (not Q1) (not (= (<= 8608 C1) U))))
      (a!12 (or (not K2) (not (= (<= 2 A) B)))))
  (and (= 2 v_75)
       (or (and G2 O2) (and K2 P2) (not M2) (and Q2 W1) (and N2 I2))
       (or (not W2) (not M2) (= P1 O1))
       (or (not W2) (not M2) (= O1 R))
       (or S (not U1) (not X1))
       (or (not H) (not C2) (not F2))
       (or H (not C2) (not L2))
       (or (= R S2) (not O2) (not G2))
       (or (= S2 8544) (not O2) (not G2))
       (or (not J) (not Y1) (not B2))
       (or (not I) (not A2) (not D2))
       (or T (not S1) (not V1))
       (or U (not Q1) (not T1))
       (or V (not N1) (not Z1))
       (or (not V) (not N1) (not R1))
       (or (not G1) (not E2) (not H2))
       (or F1 (not O2) (not G2))
       (or (not Q2) (not W1) (= U2 8560))
       (or (not Q2) (not W1) (= R U2))
       (or Q (not Q2) (not W1))
       (or (not N2) (not I2) (= R R2))
       (or (not N2) (not I2) (= R2 8544))
       (or (not N2) (not I2) (not E))
       (or (= T2 8528) (not K2) (not P2))
       (or (= R T2) (not K2) (not P2))
       (or (not D1) (not K2) (not P2))
       (or (not F1) (not G2) (not J2))
       a!1
       (or (not C2) (and A2 D2))
       a!2
       (or (not Y1) (and N1 Z1))
       a!3
       a!4
       a!5
       (or (not W1) (= Q (or K1 P)))
       (or (not W1) (= P (or J1 O)))
       (or (not W1) (= O (and M N)))
       (or (not W1) (= K (+ (- 8544) C1)))
       (or (not W1) (and U1 X1))
       a!6
       (or (not U1) (and S1 V1))
       (or (not V2) (and W2 M2))
       (or L (not W1))
       a!7
       (or (not I2) (= D (* 8 C)))
       (or (not I2) (and J2 G2))
       (or (not G2) (and E2 H2))
       a!8
       (or (not E2) (= F (+ (- 8528) C1)))
       (or (not E2) (and F2 C2))
       (or (not E2) G)
       a!9
       (or (not A2) (and B2 Y1))
       a!10
       (or (not S1) (and Q1 T1))
       a!11
       (or (not Q1) (and N1 R1))
       a!12
       (or (not K2) (= A (+ (- 8512) C1)))
       (or (not K2) (and L2 C2))
       (or (not K2) B)
       (= V2 true)
       (not (= (<= 8544 C1) V))
       (= 2 v_76)))
      )
      (main_1 v_76 W X Y Z A1 B1 P1 D1 E1 F1 G1 H1 I1 J1 K1 L1 M1)
    )
  )
)
(assert
  (forall ( (A Bool) (B Int) (C Bool) (D Bool) (E Bool) (F Bool) (G Bool) (H Bool) (I Int) (J Int) (K Int) (L Bool) (M Bool) (N Int) (O Int) (P Bool) (Q Int) (R Bool) (S Bool) (T Int) (U Int) (V Bool) (W Bool) (X Int) (Y Int) (Z Bool) (A1 Bool) (B1 Bool) (C1 Bool) (D1 Bool) (E1 Int) (F1 Int) (G1 Bool) (H1 Bool) (I1 Bool) (J1 Bool) (K1 Bool) (L1 Bool) (M1 Bool) (N1 Bool) (v_40 Int) (v_41 Int) ) 
    (=>
      (and
        (main_1 v_40 I J K L M N O P Q R S T U V W X Y)
        (let ((a!1 (or (not I1) (not (= (<= 5 K) D))))
      (a!2 (or (not I1) (not (= (<= 2 B) C))))
      (a!3 (or (not C1) (not (= (<= 8656 F1) F))))
      (a!4 (or (not G1) (not (= (<= 8672 F1) E))))
      (a!5 (or (not A1) (not (= (<= 8608 O) G)))))
  (and (= 2 v_40)
       (or (not L1) (not I1) (not D))
       (or A (not K1) (not N1))
       (or (not F) (not H1) (not C1))
       (or (not E) (not J1) (not G1))
       (or (not H) (not B1) (not Z))
       (or (= E1 O) (not D1) (not A1))
       (or (= F1 E1) (not D1) (not A1))
       (or (not G) (not D1) (not A1))
       (or (not M1) (and K1 N1))
       a!1
       a!2
       (or (not I1) (= B (+ (- 8672) F1)))
       (or (not I1) (and G1 J1))
       a!3
       (or (not C1) (and A1 D1))
       (or C (not I1))
       (or (not K1) (= A (= K 5)))
       (or (not K1) (and L1 I1))
       a!4
       (or (not G1) (and H1 C1))
       a!5
       (or (not A1) (and B1 Z))
       (= M1 true)
       (not (= (<= 8544 O) H))
       (= 3 v_41)))
      )
      (main_1 v_41 I J K L M N O P Q R S T U V W X Y)
    )
  )
)
(assert
  (forall ( (A Int) (B Int) (C Int) (D Bool) (E Bool) (F Int) (G Int) (H Bool) (I Int) (J Bool) (K Bool) (L Int) (M Int) (N Bool) (O Bool) (P Int) (Q Int) (v_17 Int) ) 
    (=>
      (and
        (main_1 v_17 A B C D E F G H I J K L M N O P Q)
        (= 3 v_17)
      )
      false
    )
  )
)

(check-sat)
(exit)
